Optimal - objective value 8.00000000
      0 C0000000               0                      -0
      1 C0000001               0                      -0
      2 C0000002               0                      -0
      3 C0000003               0                      -0
      4 C0000004               0                      -0
      5 C0000005               0                      -0
      6 C0000006               0                      -0
      7 C0000007               0                      -0
      8 C0000008               0                      -0
      9 C0000009               0                      -0
     10 C0000010               0                      -0
     11 C0000011               0                      -0
     12 C0000012               0                      -0
     13 C0000013               0                      -0
     14 C0000014               0                      -0
     15 C0000015               0                      -0
     16 C0000016               0                      -0
     17 C0000017               0                      -0
     18 C0000018               0                      -0
     19 C0000019               0                      -0
     20 C0000020               0                      -0
     21 C0000021               0                      -0
     22 C0000022               0                      -0
     23 C0000023               0                      -0
     24 C0000024               0                      -0
     25 C0000025               0                      -0
     26 C0000026               0                      -0
     27 C0000027               0                      -0
     28 C0000028               0                      -0
     29 C0000029               0                      -0
     30 C0000030               0                      -0
     31 C0000031               0                      -0
     32 C0000032               0                      -0
     33 C0000033               0                      -0
     34 C0000034               0                      -0
     35 C0000035               0                      -0
     36 C0000036               0                      -0
     37 C0000037               0                      -0
     38 C0000038               0                      -0
     39 C0000039               0                      -0
     40 C0000040               0                      -0
     41 C0000041               0                      -0
     42 C0000042               0                      -0
     43 C0000043               0                      -0
     44 C0000044               0                      -0
     45 C0000045               0                      -0
     46 C0000046               0                      -0
     47 C0000047               0                      -0
     48 C0000048               0                      -0
     49 C0000049               1                      -0
     50 C0000050               0                      -0
     51 C0000051               0                      -0
     52 C0000052               0                      -0
     53 C0000053               0                      -0
     54 C0000054               0                      -0
     55 C0000055               0                      -0
     56 C0000056               0                      -0
     57 C0000057               1                      -0
     58 C0000058               0                      -0
     59 C0000059               0                      -0
     60 C0000060               0                      -0
     61 C0000061               0                      -0
     62 C0000062               0                      -0
     63 C0000063               0                      -0
     64 C0000064               0                      -0
     65 C0000065               0                      -0
     66 C0000066               1                      -0
     67 C0000067               0                      -0
     68 C0000068               0                      -0
     69 C0000069               0                      -0
     70 C0000070               0                      -0
     71 C0000071               0                      -0
     72 C0000072               0                      -0
     73 C0000073               0                      -0
     74 C0000074               0                      -0
     75 C0000075               0                      -0
     76 C0000076               0                      -0
     77 C0000077               0                      -0
     78 C0000078               0                      -0
     79 C0000079               0                      -0
     80 C0000080               0                      -0
     81 C0000081               0                      -0
     82 C0000082               0                      -0
     83 C0000083               0                      -0
     84 C0000084               0                      -0
     85 C0000085               1                      -0
     86 C0000086               0                      -0
     87 C0000087               0                      -0
     88 C0000088               0                      -0
     89 C0000089               0                      -0
     90 C0000090               0                      -0
     91 C0000091               0                      -0
     92 C0000092               0                      -0
     93 C0000093               0                      -0
     94 C0000094               0                      -0
     95 C0000095               0                      -0
     96 C0000096               0                      -0
     97 C0000097               0                      -0
     98 C0000098               0                      -0
     99 C0000099               0                      -0
    100 C0000100               0                      -0
    101 C0000101               0                      -0
    102 C0000102               0                      -0
    103 C0000103               0                      -0
    104 C0000104               0                      -0
    105 C0000105               0                      -0
    106 C0000106               0                      -0
    107 C0000107               0                      -0
    108 C0000108               0                      -0
    109 C0000109               0                      -0
    110 C0000110               0                      -0
    111 C0000111               0                      -0
    112 C0000112               1                      -0
    113 C0000113               0                      -0
    114 C0000114               0                      -0
    115 C0000115               0                      -0
    116 C0000116               0                      -0
    117 C0000117               0                      -0
    118 C0000118               0                      -0
    119 C0000119               0                      -0
    120 C0000120               0                      -0
    121 C0000121               1                      -0
    122 C0000122               0                      -0
    123 C0000123               0                      -0
    124 C0000124               0                      -0
    125 C0000125               0                      -0
    126 C0000126               0                      -0
    127 C0000127               0                      -0
    128 C0000128               0                      -0
    129 C0000129               0                      -0
    130 C0000130               0                      -0
    131 C0000131               0                      -0
    132 C0000132               0                      -0
    133 C0000133               0                      -0
    134 C0000134               1                      -0
    135 C0000135               0                      -0
    136 C0000136               0                      -0
    137 C0000137               0                      -0
    138 C0000138               0                      -0
    139 C0000139               0                      -0
    140 C0000140               0                      -0
    141 C0000141               0                      -0
    142 C0000142               0                      -0
    143 C0000143               1                      -0
    144 C0000144               0                      -0
    145 C0000145               1                      -0
    146 C0000146               1                      -0
    147 C0000147               1                      -0
    148 C0000148               0                      -0
    149 C0000149               1                      -0
    150 C0000150               0                      -0
    151 C0000151               1                      -0
    152 C0000152               1                      -0
    153 C0000153               1                      -0
    154 C0000154               1                      -0
    155 C0000155               1                      -0
    156 C0000156               1                      -0
    157 C0000157               1                      -0
    158 C0000158               0                      -0
    159 C0000159               1                      -0
    160 C0000160               0                      -0
    161 C0000161               1                      -0
    162 C0000162               1                      -0
    163 C0000163               1                      -0
    164 C0000164               1                      -0
      0 X0000000               0                       1
      1 X0000001               0                       1
      2 X0000002               0                       1
      3 X0000003               0                       1
      4 X0000004               1                       1
      5 X0000005               0                       1
      6 X0000006               0                       1
      7 X0000007               0                       1
      8 X0000008               0                       1
      9 X0000009               0                       1
     10 X0000010               0                       1
     11 X0000011               0                       1
     12 X0000012               1                       1
     13 X0000013               0                       1
     14 X0000014               0                       1
     15 X0000015               0                       1
     16 X0000016               0                       1
     17 X0000017               0                       1
     18 X0000018               0                       1
     19 X0000019               0                       1
     20 X0000020               0                       1
     21 X0000021               1                       1
     22 X0000022               0                       1
     23 X0000023               0                       1
     24 X0000024               0                       1
     25 X0000025               0                       1
     26 X0000026               0                       1
     27 X0000027               0                       1
     28 X0000028               0                       1
     29 X0000029               0                       1
     30 X0000030               0                       1
     31 X0000031               0                       1
     32 X0000032               0                       1
     33 X0000033               0                       1
     34 X0000034               0                       1
     35 X0000035               0                       1
     36 X0000036               0                       1
     37 X0000037               0                       1
     38 X0000038               0                       1
     39 X0000039               0                       1
     40 X0000040               1                       1
     41 X0000041               0                       1
     42 X0000042               0                       1
     43 X0000043               0                       1
     44 X0000044               0                       1
     45 X0000045               0                       1
     46 X0000046               0                       1
     47 X0000047               0                       1
     48 X0000048               0                       1
     49 X0000049               0                       1
     50 X0000050               0                       1
     51 X0000051               0                       1
     52 X0000052               0                       1
     53 X0000053               0                       1
     54 X0000054               0                       1
     55 X0000055               0                       1
     56 X0000056               0                       1
     57 X0000057               0                       1
     58 X0000058               0                       1
     59 X0000059               0                       1
     60 X0000060               0                       1
     61 X0000061               0                       1
     62 X0000062               0                       1
     63 X0000063               0                       1
     64 X0000064               0                       1
     65 X0000065               0                       1
     66 X0000066               0                       1
     67 X0000067               1                       1
     68 X0000068               0                       1
     69 X0000069               0                       1
     70 X0000070               0                       1
     71 X0000071               0                       1
     72 X0000072               0                       1
     73 X0000073               0                       1
     74 X0000074               0                       1
     75 X0000075               0                       1
     76 X0000076               1                       1
     77 X0000077               0                       1
     78 X0000078               0                       1
     79 X0000079               0                       1
     80 X0000080               0                       1
     81 X0000081               0                       1
     82 X0000082               0                       1
     83 X0000083               0                       1
     84 X0000084               0                       1
     85 X0000085               0                       1
     86 X0000086               0                       1
     87 X0000087               0                       1
     88 X0000088               0                       1
     89 X0000089               1                       1
     90 X0000090               0                       1
     91 X0000091               0                       1
     92 X0000092               0                       1
     93 X0000093               0                       1
     94 X0000094               0                       1
     95 X0000095               0                       1
     96 X0000096               0                       1
     97 X0000097               0                       1
     98 X0000098               1                       1
     99 X0000099               0                       1
